\ENCODING=ISO-8859-1
\Problem name: IloCplex

Minimize
 obj: 823 x_20 + 83 x_21 + 845 x_22 + 856 x_23 + 78 x_24 + 637 x_25 + 573 x_26
      + 864 x_27 + 307 x_28 + 494 x_29 + 314 x_30 + 220 x_31 + 653 x_32
      + 559 x_33 + 301 x_34 + 528 x_35 + 89 x_36 + 197 x_37 + 392 x_38
      + 578 x_39 + 841 x_40 + 153 x_41 + 129 x_42 + 418 x_43 + 694 x_44
      + 588 x_45 + 981 x_46 + 573 x_47 + 412 x_48 + 414 x_49 + 702 x_50
      + 235 x_51 + 498 x_52 + 548 x_53 + 91 x_54 + 577 x_55 + 185 x_56
      + 665 x_57 + 442 x_58 + 493 x_59 + 159 x_60 + 756 x_61 + 713 x_62
      + 813 x_63 + 315 x_64
Subject To
 c1:   y_01 + y_10 - x_0  = 0
 c2:   x_0 - Rgc2  = 0
 c3:   y_02 + y_20 - x_1  = 0
 c4:   x_1 - Rgc4  = 0
 c5:   y_03 + y_30 - x_2  = 0
 c6:   x_2 - Rgc6  = 0
 c7:   y_04 + y_40 - x_3  = 0
 c8:   x_3 - Rgc8  = 0
 c9:   y_05 + y_50 - x_4  = 0
 c10:  x_4 - Rgc10  = 0
 c11:  y_06 + y_60 - x_5  = 0
 c12:  x_5 - Rgc12  = 0
 c13:  y_07 + y_70 - x_6  = 0
 c14:  x_6 - Rgc14  = 0
 c15:  y_08 + y_80 - x_7  = 0
 c16:  x_7 - Rgc16  = 0
 c17:  y_09 + y_90 - x_8  = 0
 c18:  x_8 - Rgc18  = 0
 c19:  y_010 + y_100 - x_9  = 0
 c20:  x_9 - Rgc20  = 0
 c21:  y_011 + y_110 - x_10  = 0
 c22:  x_10 - Rgc22  = 0
 c23:  y_012 + y_120 - x_11  = 0
 c24:  x_11 - Rgc24  = 0
 c25:  y_013 + y_130 - x_12  = 0
 c26:  x_12 - Rgc26  = 0
 c27:  y_014 + y_140 - x_13  = 0
 c28:  x_13 - Rgc28  = 0
 c29:  y_015 + y_150 - x_14  = 0
 c30:  x_14 - Rgc30  = 0
 c31:  y_016 + y_160 - x_15  = 0
 c32:  x_15 - Rgc32  = 0
 c33:  y_017 + y_170 - x_16  = 0
 c34:  x_16 - Rgc34  = 0
 c35:  y_018 + y_180 - x_17  = 0
 c36:  x_17 - Rgc36  = 0
 c37:  y_019 + y_190 - x_18  = 0
 c38:  x_18 - Rgc38  = 0
 c39:  y_020 + y_200 - x_19  = 0
 c40:  x_19 - Rgc40  = 0
 c41:  y_12 + y_21 - x_20  = 0
 c42:  x_20 - Rgc42  = 0
 c43:  y_13 + y_31 - x_21  = 0
 c44:  x_21 - Rgc44  = 0
 c45:  y_14 + y_41 - x_22  = 0
 c46:  x_22 - Rgc46  = 0
 c47:  y_15 + y_51 - x_23  = 0
 c48:  x_23 - Rgc48  = 0
 c49:  y_16 + y_61 - x_24  = 0
 c50:  x_24 - Rgc50  = 0
 c51:  y_17 + y_71 - x_25  = 0
 c52:  x_25 - Rgc52  = 0
 c53:  y_18 + y_81 - x_26  = 0
 c54:  x_26 - Rgc54  = 0
 c55:  y_115 + y_151 - x_27  = 0
 c56:  x_27 - Rgc56  = 0
 c57:  y_119 + y_191 - x_28  = 0
 c58:  x_28 - Rgc58  = 0
 c59:  y_218 + y_182 - x_29  = 0
 c60:  x_29 - Rgc60  = 0
 c61:  y_34 + y_43 - x_30  = 0
 c62:  x_30 - Rgc62  = 0
 c63:  y_47 + y_74 - x_31  = 0
 c64:  x_31 - Rgc64  = 0
 c65:  y_412 + y_124 - x_32  = 0
 c66:  x_32 - Rgc66  = 0
 c67:  y_415 + y_154 - x_33  = 0
 c68:  x_33 - Rgc68  = 0
 c69:  y_57 + y_75 - x_34  = 0
 c70:  x_34 - Rgc70  = 0
 c71:  y_516 + y_165 - x_35  = 0
 c72:  x_35 - Rgc72  = 0
 c73:  y_517 + y_175 - x_36  = 0
 c74:  x_36 - Rgc74  = 0
 c75:  y_519 + y_195 - x_37  = 0
 c76:  x_37 - Rgc76  = 0
 c77:  y_69 + y_96 - x_38  = 0
 c78:  x_38 - Rgc78  = 0
 c79:  y_617 + y_176 - x_39  = 0
 c80:  x_39 - Rgc80  = 0
 c81:  y_78 + y_87 - x_40  = 0
 c82:  x_40 - Rgc82  = 0
 c83:  y_711 + y_117 - x_41  = 0
 c84:  x_41 - Rgc84  = 0
 c85:  y_713 + y_137 - x_42  = 0
 c86:  x_42 - Rgc86  = 0
 c87:  y_718 + y_187 - x_43  = 0
 c88:  x_43 - Rgc88  = 0
 c89:  y_814 + y_148 - x_44  = 0
 c90:  x_44 - Rgc90  = 0
 c91:  y_819 + y_198 - x_45  = 0
 c92:  x_45 - Rgc92  = 0
 c93:  y_910 + y_109 - x_46  = 0
 c94:  x_46 - Rgc94  = 0
 c95:  y_911 + y_119 - x_47  = 0
 c96:  x_47 - Rgc96  = 0
 c97:  y_915 + y_159 - x_48  = 0
 c98:  x_48 - Rgc98  = 0
 c99:  y_1016 + y_1610 - x_49  = 0
 c100: x_49 - Rgc100  = 0
 c101: y_1017 + y_1710 - x_50  = 0
 c102: x_50 - Rgc102  = 0
 c103: y_1116 + y_1611 - x_51  = 0
 c104: x_51 - Rgc104  = 0
 c105: y_1118 + y_1811 - x_52  = 0
 c106: x_52 - Rgc106  = 0
 c107: y_1315 + y_1513 - x_53  = 0
 c108: x_53 - Rgc108  = 0
 c109: y_1318 + y_1813 - x_54  = 0
 c110: x_54 - Rgc110  = 0
 c111: y_1518 + y_1815 - x_55  = 0
 c112: x_55 - Rgc112  = 0
 c113: y_1519 + y_1915 - x_56  = 0
 c114: x_56 - Rgc114  = 0
 c115: y_1520 + y_2015 - x_57  = 0
 c116: x_57 - Rgc116  = 0
 c117: y_1617 + y_1716 - x_58  = 0
 c118: x_58 - Rgc118  = 0
 c119: y_1619 + y_1916 - x_59  = 0
 c120: x_59 - Rgc120  = 0
 c121: y_1719 + y_1917 - x_60  = 0
 c122: x_60 - Rgc122  = 0
 c123: y_1720 + y_2017 - x_61  = 0
 c124: x_61 - Rgc124  = 0
 c125: y_1819 + y_1918 - x_62  = 0
 c126: x_62 - Rgc126  = 0
 c127: y_1820 + y_2018 - x_63  = 0
 c128: x_63 - Rgc128  = 0
 c129: y_1920 + y_2019 - x_64  = 0
 c130: x_64 - Rgc130  = 0
 c131: x_0 + x_1 + x_2 + x_3 + x_4 + x_5 + x_6 + x_7 + x_8 + x_9 + x_10 + x_11
       + x_12 + x_13 + x_14 + x_15 + x_16 + x_17 + x_18 + x_19 + x_20 + x_21
       + x_22 + x_23 + x_24 + x_25 + x_26 + x_27 + x_28 + x_29 + x_30 + x_31
       + x_32 + x_33 + x_34 + x_35 + x_36 + x_37 + x_38 + x_39 + x_40 + x_41
       + x_42 + x_43 + x_44 + x_45 + x_46 + x_47 + x_48 + x_49 + x_50 + x_51
       + x_52 + x_53 + x_54 + x_55 + x_56 + x_57 + x_58 + x_59 + x_60 + x_61
       + x_62 + x_63 + x_64 <= 4
 c132: y_10 + y_20 + y_30 + y_40 + y_50 + y_60 + y_70 + y_80 + y_90 + y_100
       + y_110 + y_120 + y_130 + y_140 + y_150 + y_160 + y_170 + y_180 + y_190
       + y_200  = 0
 c133: y_01 + y_02 + y_03 + y_04 + y_05 + y_06 + y_07 + y_08 + y_09 + y_010
       + y_011 + y_012 + y_013 + y_014 + y_015 + y_016 + y_017 + y_018 + y_019
       + y_020  = 1
 c134: - 21 y_01 + y_10 + y_12 - 21 y_21 + y_13 - 21 y_31 + y_14 - 21 y_41
       + y_15 - 21 y_51 + y_16 - 21 y_61 + y_17 - 21 y_71 + y_18 - 21 y_81
       + y_115 - 21 y_151 + y_119 - 21 y_191 <= 0
 c135: y_01 + y_21 + y_31 + y_41 + y_51 + y_61 + y_71 + y_81 + y_151 + y_191
       <= 1
 c136: - y_01 - y_21 - y_31 - y_41 - y_51 - y_61 - y_71 - y_81 - y_151 - y_191
       + z_1  = 0
 c137: - 21 y_02 + y_20 - 21 y_12 + y_21 + y_218 - 21 y_182 <= 0
 c138: y_02 + y_12 + y_182 <= 1
 c139: - y_02 - y_12 - y_182 + z_2  = 0
 c140: - 21 y_03 + y_30 - 21 y_13 + y_31 + y_34 - 21 y_43 <= 0
 c141: y_03 + y_13 + y_43 <= 1
 c142: - y_03 - y_13 - y_43 + z_3  = 0
 c143: - 21 y_04 + y_40 - 21 y_14 + y_41 - 21 y_34 + y_43 + y_47 - 21 y_74
       + y_412 - 21 y_124 + y_415 - 21 y_154 <= 0
 c144: y_04 + y_14 + y_34 + y_74 + y_124 + y_154 <= 1
 c145: - y_04 - y_14 - y_34 - y_74 - y_124 - y_154 + z_4  = 0
 c146: - 21 y_05 + y_50 - 21 y_15 + y_51 + y_57 - 21 y_75 + y_516 - 21 y_165
       + y_517 - 21 y_175 + y_519 - 21 y_195 <= 0
 c147: y_05 + y_15 + y_75 + y_165 + y_175 + y_195 <= 1
 c148: - y_05 - y_15 - y_75 - y_165 - y_175 - y_195 + z_5  = 0
 c149: - 21 y_06 + y_60 - 21 y_16 + y_61 + y_69 - 21 y_96 + y_617 - 21 y_176
       <= 0
 c150: y_06 + y_16 + y_96 + y_176 <= 1
 c151: - y_06 - y_16 - y_96 - y_176 + z_6  = 0
 c152: - 21 y_07 + y_70 - 21 y_17 + y_71 - 21 y_47 + y_74 - 21 y_57 + y_75
       + y_78 - 21 y_87 + y_711 - 21 y_117 + y_713 - 21 y_137 + y_718
       - 21 y_187 <= 0
 c153: y_07 + y_17 + y_47 + y_57 + y_87 + y_117 + y_137 + y_187 <= 1
 c154: - y_07 - y_17 - y_47 - y_57 - y_87 - y_117 - y_137 - y_187 + z_7  = 0
 c155: - 21 y_08 + y_80 - 21 y_18 + y_81 - 21 y_78 + y_87 + y_814 - 21 y_148
       + y_819 - 21 y_198 <= 0
 c156: y_08 + y_18 + y_78 + y_148 + y_198 <= 1
 c157: - y_08 - y_18 - y_78 - y_148 - y_198 + z_8  = 0
 c158: - 21 y_09 + y_90 - 21 y_69 + y_96 + y_910 - 21 y_109 + y_911 - 21 y_119
       + y_915 - 21 y_159 <= 0
 c159: y_09 + y_69 + y_109 + y_119 + y_159 <= 1
 c160: - y_09 - y_69 - y_109 - y_119 - y_159 + z_9  = 0
 c161: - 21 y_010 + y_100 - 21 y_910 + y_109 + y_1016 - 21 y_1610 + y_1017
       - 21 y_1710 <= 0
 c162: y_010 + y_910 + y_1610 + y_1710 <= 1
 c163: - y_010 - y_910 - y_1610 - y_1710 + z_10  = 0
 c164: - 21 y_011 + y_110 - 21 y_711 + y_117 - 21 y_911 + y_119 + y_1116
       - 21 y_1611 + y_1118 - 21 y_1811 <= 0
 c165: y_011 + y_711 + y_911 + y_1611 + y_1811 <= 1
 c166: - y_011 - y_711 - y_911 - y_1611 - y_1811 + z_11  = 0
 c167: - 21 y_012 + y_120 - 21 y_412 + y_124 <= 0
 c168: y_012 + y_412 <= 1
 c169: - y_012 - y_412 + z_12  = 0
 c170: - 21 y_013 + y_130 - 21 y_713 + y_137 + y_1315 - 21 y_1513 + y_1318
       - 21 y_1813 <= 0
 c171: y_013 + y_713 + y_1513 + y_1813 <= 1
 c172: - y_013 - y_713 - y_1513 - y_1813 + z_13  = 0
 c173: - 21 y_014 + y_140 - 21 y_814 + y_148 <= 0
 c174: y_014 + y_814 <= 1
 c175: - y_014 - y_814 + z_14  = 0
 c176: - 21 y_015 + y_150 - 21 y_115 + y_151 - 21 y_415 + y_154 - 21 y_915
       + y_159 - 21 y_1315 + y_1513 + y_1518 - 21 y_1815 + y_1519 - 21 y_1915
       + y_1520 - 21 y_2015 <= 0
 c177: y_015 + y_115 + y_415 + y_915 + y_1315 + y_1815 + y_1915 + y_2015 <= 1
 c178: - y_015 - y_115 - y_415 - y_915 - y_1315 - y_1815 - y_1915 - y_2015
       + z_15  = 0
 c179: - 21 y_016 + y_160 - 21 y_516 + y_165 - 21 y_1016 + y_1610 - 21 y_1116
       + y_1611 + y_1617 - 21 y_1716 + y_1619 - 21 y_1916 <= 0
 c180: y_016 + y_516 + y_1016 + y_1116 + y_1716 + y_1916 <= 1
 c181: - y_016 - y_516 - y_1016 - y_1116 - y_1716 - y_1916 + z_16  = 0
 c182: - 21 y_017 + y_170 - 21 y_517 + y_175 - 21 y_617 + y_176 - 21 y_1017
       + y_1710 - 21 y_1617 + y_1716 + y_1719 - 21 y_1917 + y_1720 - 21 y_2017
       <= 0
 c183: y_017 + y_517 + y_617 + y_1017 + y_1617 + y_1917 + y_2017 <= 1
 c184: - y_017 - y_517 - y_617 - y_1017 - y_1617 - y_1917 - y_2017 + z_17  = 0
 c185: - 21 y_018 + y_180 - 21 y_218 + y_182 - 21 y_718 + y_187 - 21 y_1118
       + y_1811 - 21 y_1318 + y_1813 - 21 y_1518 + y_1815 + y_1819 - 21 y_1918
       + y_1820 - 21 y_2018 <= 0
 c186: y_018 + y_218 + y_718 + y_1118 + y_1318 + y_1518 + y_1918 + y_2018 <= 1
 c187: - y_018 - y_218 - y_718 - y_1118 - y_1318 - y_1518 - y_1918 - y_2018
       + z_18  = 0
 c188: - 21 y_019 + y_190 - 21 y_119 + y_191 - 21 y_519 + y_195 - 21 y_819
       + y_198 - 21 y_1519 + y_1915 - 21 y_1619 + y_1916 - 21 y_1719 + y_1917
       - 21 y_1819 + y_1918 + y_1920 - 21 y_2019 <= 0
 c189: y_019 + y_119 + y_519 + y_819 + y_1519 + y_1619 + y_1719 + y_1819
       + y_2019 <= 1
 c190: - y_019 - y_119 - y_519 - y_819 - y_1519 - y_1619 - y_1719 - y_1819
       - y_2019 + z_19  = 0
 c191: - 21 y_020 + y_200 - 21 y_1520 + y_2015 - 21 y_1720 + y_2017 - 21 y_1820
       + y_2018 - 21 y_1920 + y_2019 <= 0
 c192: y_020 + y_1520 + y_1720 + y_1820 + y_1920 <= 1
 c193: - y_020 - y_1520 - y_1720 - y_1820 - y_1920 + z_20  = 0
 c194: z_1 + z_2 + z_3 + z_4 + z_5 + z_6 + z_7 + z_8 + z_9 + z_10 + z_11 + z_12
       + z_13 + z_14 + z_15 + z_16 + z_17 + z_18 + z_19 + z_20  = 4
Bounds
 0 <= y_01 <= 1
 0 <= y_10 <= 1
 0 <= x_0 <= 1
 0 <= y_02 <= 1
 0 <= y_20 <= 1
 0 <= x_1 <= 1
 0 <= y_03 <= 1
 0 <= y_30 <= 1
 0 <= x_2 <= 1
 0 <= y_04 <= 1
 0 <= y_40 <= 1
 0 <= x_3 <= 1
 0 <= y_05 <= 1
 0 <= y_50 <= 1
 0 <= x_4 <= 1
 0 <= y_06 <= 1
 0 <= y_60 <= 1
 0 <= x_5 <= 1
 0 <= y_07 <= 1
 0 <= y_70 <= 1
 0 <= x_6 <= 1
 0 <= y_08 <= 1
 0 <= y_80 <= 1
 0 <= x_7 <= 1
 0 <= y_09 <= 1
 0 <= y_90 <= 1
 0 <= x_8 <= 1
 0 <= y_010 <= 1
 0 <= y_100 <= 1
 0 <= x_9 <= 1
 0 <= y_011 <= 1
 0 <= y_110 <= 1
 0 <= x_10 <= 1
 0 <= y_012 <= 1
 0 <= y_120 <= 1
 0 <= x_11 <= 1
 0 <= y_013 <= 1
 0 <= y_130 <= 1
 0 <= x_12 <= 1
 0 <= y_014 <= 1
 0 <= y_140 <= 1
 0 <= x_13 <= 1
 0 <= y_015 <= 1
 0 <= y_150 <= 1
 0 <= x_14 <= 1
 0 <= y_016 <= 1
 0 <= y_160 <= 1
 0 <= x_15 <= 1
 0 <= y_017 <= 1
 0 <= y_170 <= 1
 0 <= x_16 <= 1
 0 <= y_018 <= 1
 0 <= y_180 <= 1
 0 <= x_17 <= 1
 0 <= y_019 <= 1
 0 <= y_190 <= 1
 0 <= x_18 <= 1
 0 <= y_020 <= 1
 0 <= y_200 <= 1
 0 <= x_19 <= 1
 0 <= y_12 <= 1
 0 <= y_21 <= 1
 0 <= x_20 <= 1
 0 <= y_13 <= 1
 0 <= y_31 <= 1
 0 <= x_21 <= 1
 0 <= y_14 <= 1
 0 <= y_41 <= 1
 0 <= x_22 <= 1
 0 <= y_15 <= 1
 0 <= y_51 <= 1
 0 <= x_23 <= 1
 0 <= y_16 <= 1
 0 <= y_61 <= 1
 0 <= x_24 <= 1
 0 <= y_17 <= 1
 0 <= y_71 <= 1
 0 <= x_25 <= 1
 0 <= y_18 <= 1
 0 <= y_81 <= 1
 0 <= x_26 <= 1
 0 <= y_115 <= 1
 0 <= y_151 <= 1
 0 <= x_27 <= 1
 0 <= y_119 <= 1
 0 <= y_191 <= 1
 0 <= x_28 <= 1
 0 <= y_218 <= 1
 0 <= y_182 <= 1
 0 <= x_29 <= 1
 0 <= y_34 <= 1
 0 <= y_43 <= 1
 0 <= x_30 <= 1
 0 <= y_47 <= 1
 0 <= y_74 <= 1
 0 <= x_31 <= 1
 0 <= y_412 <= 1
 0 <= y_124 <= 1
 0 <= x_32 <= 1
 0 <= y_415 <= 1
 0 <= y_154 <= 1
 0 <= x_33 <= 1
 0 <= y_57 <= 1
 0 <= y_75 <= 1
 0 <= x_34 <= 1
 0 <= y_516 <= 1
 0 <= y_165 <= 1
 0 <= x_35 <= 1
 0 <= y_517 <= 1
 0 <= y_175 <= 1
 0 <= x_36 <= 1
 0 <= y_519 <= 1
 0 <= y_195 <= 1
 0 <= x_37 <= 1
 0 <= y_69 <= 1
 0 <= y_96 <= 1
 0 <= x_38 <= 1
 0 <= y_617 <= 1
 0 <= y_176 <= 1
 0 <= x_39 <= 1
 0 <= y_78 <= 1
 0 <= y_87 <= 1
 0 <= x_40 <= 1
 0 <= y_711 <= 1
 0 <= y_117 <= 1
 0 <= x_41 <= 1
 0 <= y_713 <= 1
 0 <= y_137 <= 1
 0 <= x_42 <= 1
 0 <= y_718 <= 1
 0 <= y_187 <= 1
 0 <= x_43 <= 1
 0 <= y_814 <= 1
 0 <= y_148 <= 1
 0 <= x_44 <= 1
 0 <= y_819 <= 1
 0 <= y_198 <= 1
 0 <= x_45 <= 1
 0 <= y_910 <= 1
 0 <= y_109 <= 1
 0 <= x_46 <= 1
 0 <= y_911 <= 1
 0 <= y_119 <= 1
 0 <= x_47 <= 1
 0 <= y_915 <= 1
 0 <= y_159 <= 1
 0 <= x_48 <= 1
 0 <= y_1016 <= 1
 0 <= y_1610 <= 1
 0 <= x_49 <= 1
 0 <= y_1017 <= 1
 0 <= y_1710 <= 1
 0 <= x_50 <= 1
 0 <= y_1116 <= 1
 0 <= y_1611 <= 1
 0 <= x_51 <= 1
 0 <= y_1118 <= 1
 0 <= y_1811 <= 1
 0 <= x_52 <= 1
 0 <= y_1315 <= 1
 0 <= y_1513 <= 1
 0 <= x_53 <= 1
 0 <= y_1318 <= 1
 0 <= y_1813 <= 1
 0 <= x_54 <= 1
 0 <= y_1518 <= 1
 0 <= y_1815 <= 1
 0 <= x_55 <= 1
 0 <= y_1519 <= 1
 0 <= y_1915 <= 1
 0 <= x_56 <= 1
 0 <= y_1520 <= 1
 0 <= y_2015 <= 1
 0 <= x_57 <= 1
 0 <= y_1617 <= 1
 0 <= y_1716 <= 1
 0 <= x_58 <= 1
 0 <= y_1619 <= 1
 0 <= y_1916 <= 1
 0 <= x_59 <= 1
 0 <= y_1719 <= 1
 0 <= y_1917 <= 1
 0 <= x_60 <= 1
 0 <= y_1720 <= 1
 0 <= y_2017 <= 1
 0 <= x_61 <= 1
 0 <= y_1819 <= 1
 0 <= y_1918 <= 1
 0 <= x_62 <= 1
 0 <= y_1820 <= 1
 0 <= y_2018 <= 1
 0 <= x_63 <= 1
 0 <= y_1920 <= 1
 0 <= y_2019 <= 1
 0 <= x_64 <= 1
 0 <= z_1 <= 1
 0 <= z_2 <= 1
 0 <= z_3 <= 1
 0 <= z_4 <= 1
 0 <= z_5 <= 1
 0 <= z_6 <= 1
 0 <= z_7 <= 1
 0 <= z_8 <= 1
 0 <= z_9 <= 1
 0 <= z_10 <= 1
 0 <= z_11 <= 1
 0 <= z_12 <= 1
 0 <= z_13 <= 1
 0 <= z_14 <= 1
 0 <= z_15 <= 1
 0 <= z_16 <= 1
 0 <= z_17 <= 1
 0 <= z_18 <= 1
 0 <= z_19 <= 1
 0 <= z_20 <= 1
 0 <= Rgc2 <= 1
 0 <= Rgc4 <= 1
 0 <= Rgc6 <= 1
 0 <= Rgc8 <= 1
 0 <= Rgc10 <= 1
 0 <= Rgc12 <= 1
 0 <= Rgc14 <= 1
 0 <= Rgc16 <= 1
 0 <= Rgc18 <= 1
 0 <= Rgc20 <= 1
 0 <= Rgc22 <= 1
 0 <= Rgc24 <= 1
 0 <= Rgc26 <= 1
 0 <= Rgc28 <= 1
 0 <= Rgc30 <= 1
 0 <= Rgc32 <= 1
 0 <= Rgc34 <= 1
 0 <= Rgc36 <= 1
 0 <= Rgc38 <= 1
 0 <= Rgc40 <= 1
 0 <= Rgc42 <= 1
 0 <= Rgc44 <= 1
 0 <= Rgc46 <= 1
 0 <= Rgc48 <= 1
 0 <= Rgc50 <= 1
 0 <= Rgc52 <= 1
 0 <= Rgc54 <= 1
 0 <= Rgc56 <= 1
 0 <= Rgc58 <= 1
 0 <= Rgc60 <= 1
 0 <= Rgc62 <= 1
 0 <= Rgc64 <= 1
 0 <= Rgc66 <= 1
 0 <= Rgc68 <= 1
 0 <= Rgc70 <= 1
 0 <= Rgc72 <= 1
 0 <= Rgc74 <= 1
 0 <= Rgc76 <= 1
 0 <= Rgc78 <= 1
 0 <= Rgc80 <= 1
 0 <= Rgc82 <= 1
 0 <= Rgc84 <= 1
 0 <= Rgc86 <= 1
 0 <= Rgc88 <= 1
 0 <= Rgc90 <= 1
 0 <= Rgc92 <= 1
 0 <= Rgc94 <= 1
 0 <= Rgc96 <= 1
 0 <= Rgc98 <= 1
 0 <= Rgc100 <= 1
 0 <= Rgc102 <= 1
 0 <= Rgc104 <= 1
 0 <= Rgc106 <= 1
 0 <= Rgc108 <= 1
 0 <= Rgc110 <= 1
 0 <= Rgc112 <= 1
 0 <= Rgc114 <= 1
 0 <= Rgc116 <= 1
 0 <= Rgc118 <= 1
 0 <= Rgc120 <= 1
 0 <= Rgc122 <= 1
 0 <= Rgc124 <= 1
 0 <= Rgc126 <= 1
 0 <= Rgc128 <= 1
 0 <= Rgc130 <= 1
Binaries
 y_01  y_10  x_0  y_02  y_20  x_1  y_03  y_30  x_2  y_04  y_40  x_3  y_05 
 y_50  x_4  y_06  y_60  x_5  y_07  y_70  x_6  y_08  y_80  x_7  y_09  y_90  x_8 
 y_010  y_100  x_9  y_011  y_110  x_10  y_012  y_120  x_11  y_013  y_130  x_12 
 y_014  y_140  x_13  y_015  y_150  x_14  y_016  y_160  x_15  y_017  y_170 
 x_16  y_018  y_180  x_17  y_019  y_190  x_18  y_020  y_200  x_19  y_12  y_21 
 x_20  y_13  y_31  x_21  y_14  y_41  x_22  y_15  y_51  x_23  y_16  y_61  x_24 
 y_17  y_71  x_25  y_18  y_81  x_26  y_115  y_151  x_27  y_119  y_191  x_28 
 y_218  y_182  x_29  y_34  y_43  x_30  y_47  y_74  x_31  y_412  y_124  x_32 
 y_415  y_154  x_33  y_57  y_75  x_34  y_516  y_165  x_35  y_517  y_175  x_36 
 y_519  y_195  x_37  y_69  y_96  x_38  y_617  y_176  x_39  y_78  y_87  x_40 
 y_711  y_117  x_41  y_713  y_137  x_42  y_718  y_187  x_43  y_814  y_148 
 x_44  y_819  y_198  x_45  y_910  y_109  x_46  y_911  y_119  x_47  y_915 
 y_159  x_48  y_1016  y_1610  x_49  y_1017  y_1710  x_50  y_1116  y_1611  x_51 
 y_1118  y_1811  x_52  y_1315  y_1513  x_53  y_1318  y_1813  x_54  y_1518 
 y_1815  x_55  y_1519  y_1915  x_56  y_1520  y_2015  x_57  y_1617  y_1716 
 x_58  y_1619  y_1916  x_59  y_1719  y_1917  x_60  y_1720  y_2017  x_61 
 y_1819  y_1918  x_62  y_1820  y_2018  x_63  y_1920  y_2019  x_64  z_1  z_2 
 z_3  z_4  z_5  z_6  z_7  z_8  z_9  z_10  z_11  z_12  z_13  z_14  z_15  z_16 
 z_17  z_18  z_19  z_20 
End
